p cnf 215 493
1 0
-2 0
-3 0
-4 0
-5 0
-6 0
-7 0
-8 0
-9 0
-10 0
-11 0
-12 0
-13 0
-14 0
-15 0
-16 0
-17 0
-18 0
-19 0
-20 0
-21 0
-22 0
1 -23 0
-1 23 0
24 25 0
26 25 0
-24 -26 -25 0
-2 25 -27 0
2 -25 -27 0
27 -25 -2 0
2 25 27 0
-27 0
1 28 0
29 28 0
-1 -29 -28 0
-24 28 -30 0
24 -28 -30 0
30 -28 -24 0
24 28 30 0
-30 0
31 32 0
33 32 0
-31 -33 -32 0
-3 32 -34 0
3 -32 -34 0
34 -32 -3 0
3 32 34 0
-34 0
35 36 0
37 36 0
-35 -37 -36 0
-31 36 -38 0
31 -36 -38 0
38 -36 -31 0
31 36 38 0
-38 0
39 40 0
33 40 0
37 40 0
-39 -33 -37 -40 0
-35 40 -41 0
35 -40 -41 0
41 -40 -35 0
35 40 41 0
-41 0
35 42 0
43 42 0
-35 -43 -42 0
-4 42 -44 0
4 -42 -44 0
44 -42 -4 0
4 42 44 0
-44 0
45 46 0
47 46 0
-45 -47 -46 0
-5 46 -48 0
5 -46 -48 0
48 -46 -5 0
5 46 48 0
-48 0
6 49 0
50 49 0
-6 -50 -49 0
-45 49 -51 0
45 -49 -51 0
51 -49 -45 0
45 49 51 0
-51 0
52 53 0
54 53 0
-52 -54 -53 0
-6 53 -55 0
6 -53 -55 0
55 -53 -6 0
6 53 55 0
-55 0
56 57 0
54 57 0
-54 -56 -57 0
-52 57 -58 0
52 -57 -58 0
58 -57 -52 0
52 57 58 0
-58 0
59 60 0
61 60 0
-59 -61 -60 0
-7 60 -62 0
7 -60 -62 0
62 -60 -7 0
7 60 62 0
-62 0
63 64 0
65 64 0
-63 -65 -64 0
-59 64 -66 0
59 -64 -66 0
66 -64 -59 0
59 64 66 0
-66 0
67 68 0
69 68 0
-67 -69 -68 0
-63 68 -70 0
63 -68 -70 0
70 -68 -63 0
63 68 70 0
-70 0
71 72 0
73 72 0
-71 -73 -72 0
-67 72 -74 0
67 -72 -74 0
74 -72 -67 0
67 72 74 0
-74 0
75 76 0
77 76 0
-75 -77 -76 0
-71 76 -78 0
71 -76 -78 0
78 -76 -71 0
71 76 78 0
-78 0
79 80 0
81 80 0
-79 -81 -80 0
-75 80 -82 0
75 -80 -82 0
82 -80 -75 0
75 80 82 0
-82 0
83 84 0
85 84 0
-83 -85 -84 0
-79 84 -86 0
79 -84 -86 0
86 -84 -79 0
79 84 86 0
-86 0
77 87 0
81 87 0
85 87 0
88 87 0
-89 0
-83 87 -90 0
83 -87 -90 0
90 -87 -83 0
83 87 90 0
-90 0
91 92 0
93 92 0
-91 -93 -92 0
-8 92 -94 0
8 -92 -94 0
94 -92 -8 0
8 92 94 0
-94 0
75 95 0
96 95 0
-75 -96 -95 0
-91 95 -97 0
91 -95 -97 0
97 -95 -91 0
91 95 97 0
-97 0
98 99 0
100 99 0
-98 -100 -99 0
-9 99 -101 0
9 -99 -101 0
101 -99 -9 0
9 99 101 0
-101 0
102 103 0
104 103 0
-102 -104 -103 0
-98 103 -105 0
98 -103 -105 0
105 -103 -98 0
98 103 105 0
-105 0
106 107 0
108 107 0
-106 -108 -107 0
-102 107 -109 0
102 -107 -109 0
109 -107 -102 0
102 107 109 0
-109 0
110 111 0
112 111 0
-110 -112 -111 0
-106 111 -113 0
106 -111 -113 0
113 -111 -106 0
106 111 113 0
-113 0
114 115 0
116 115 0
-114 -116 -115 0
-110 115 -117 0
110 -115 -117 0
117 -115 -110 0
110 115 117 0
-117 0
118 119 0
120 119 0
-118 -120 -119 0
-114 119 -121 0
114 -119 -121 0
121 -119 -114 0
114 119 121 0
-121 0
112 122 0
116 122 0
120 122 0
123 122 0
-124 0
-118 122 -125 0
118 -122 -125 0
125 -122 -118 0
118 122 125 0
-125 0
11 126 0
127 126 0
-11 -127 -126 0
-10 126 -128 0
10 -126 -128 0
128 -126 -10 0
10 126 128 0
-128 0
11 -129 0
-11 129 0
8 130 0
131 130 0
-8 -131 -130 0
-12 130 -132 0
12 -130 -132 0
132 -130 -12 0
12 130 132 0
-132 0
133 134 0
135 134 0
-133 -135 -134 0
-13 134 -136 0
13 -134 -136 0
136 -134 -13 0
13 134 136 0
-136 0
10 137 0
138 137 0
-10 -138 -137 0
-133 137 -139 0
133 -137 -139 0
139 -137 -133 0
133 137 139 0
-139 0
140 141 0
142 141 0
-140 -142 -141 0
-14 141 -143 0
14 -141 -143 0
143 -141 -14 0
14 141 143 0
-143 0
110 144 0
145 144 0
-110 -145 -144 0
-140 144 -146 0
140 -144 -146 0
146 -144 -140 0
140 144 146 0
-146 0
5 147 0
148 147 0
-5 -148 -147 0
-15 147 -149 0
15 -147 -149 0
149 -147 -15 0
15 147 149 0
-149 0
79 150 0
151 150 0
-79 -151 -150 0
-16 150 -152 0
16 -150 -152 0
152 -150 -16 0
16 150 152 0
-152 0
153 154 0
155 154 0
-153 -155 -154 0
-17 154 -156 0
17 -154 -156 0
156 -154 -17 0
17 154 156 0
-156 0
91 157 0
158 157 0
-91 -158 -157 0
-153 157 -159 0
153 -157 -159 0
159 -157 -153 0
153 157 159 0
-159 0
19 160 0
161 160 0
-19 -161 -160 0
-18 160 -162 0
18 -160 -162 0
162 -160 -18 0
18 160 162 0
-162 0
163 164 0
165 164 0
-163 -165 -164 0
-19 164 -166 0
19 -164 -166 0
166 -164 -19 0
19 164 166 0
-166 0
4 167 0
168 167 0
-4 -168 -167 0
-163 167 -169 0
163 -167 -169 0
169 -167 -163 0
163 167 169 0
-169 0
45 170 0
171 170 0
-45 -171 -170 0
-20 170 -172 0
20 -170 -172 0
172 -170 -20 0
20 170 172 0
-172 0
173 174 0
175 174 0
-173 -175 -174 0
-21 174 -176 0
21 -174 -176 0
176 -174 -21 0
21 174 176 0
-176 0
177 178 0
179 178 0
-177 -179 -178 0
-173 178 -180 0
173 -178 -180 0
180 -178 -173 0
173 178 180 0
-180 0
181 182 0
183 182 0
-181 -183 -182 0
-177 182 -184 0
177 -182 -184 0
184 -182 -177 0
177 182 184 0
-184 0
185 186 0
187 186 0
-185 -187 -186 0
-181 186 -188 0
181 -186 -188 0
188 -186 -181 0
181 186 188 0
-188 0
189 190 0
191 190 0
-189 -191 -190 0
-185 190 -192 0
185 -190 -192 0
192 -190 -185 0
185 190 192 0
-192 0
193 194 0
195 194 0
-193 -195 -194 0
-189 194 -196 0
189 -194 -196 0
196 -194 -189 0
189 194 196 0
-196 0
191 197 0
198 197 0
195 197 0
-191 -198 -195 -197 0
-193 197 -199 0
193 -197 -199 0
199 -197 -193 0
193 197 199 0
-199 0
200 201 0
202 201 0
-200 -202 -201 0
-22 201 -203 0
22 -201 -203 0
203 -201 -22 0
22 201 203 0
-203 0
189 204 0
205 204 0
-189 -205 -204 0
-200 204 -206 0
200 -204 -206 0
206 -204 -200 0
200 204 206 0
-206 0
23 -207 0
26 -207 0
-207 -29 0
33 -207 0
37 -207 0
-207 -39 0
-207 -43 0
-207 -47 0
-207 -50 0
-207 -54 0
56 -207 0
-207 -61 0
-207 -65 0
-207 -69 0
-207 -73 0
-207 -77 0
-207 -81 0
-207 -85 0
88 -207 0
-207 -93 0
96 -207 0
-207 -100 0
104 -207 0
-207 -108 0
-207 -112 0
-207 -116 0
120 -207 0
123 -207 0
127 -207 0
-207 -129 0
131 -207 0
135 -207 0
-207 -138 0
-207 -142 0
145 -207 0
-207 -148 0
151 -207 0
155 -207 0
158 -207 0
-207 -161 0
-207 -165 0
-207 -168 0
171 -207 0
175 -207 0
179 -207 0
-207 -183 0
187 -207 0
-207 -191 0
195 -207 0
-207 -198 0
-207 -202 0
205 -207 0
207 0
-208 0
-209 0
-210 0
-211 0
-212 0
-213 0
-214 0
-215 0
